Route #1: 2 45 44 58 53 6 3 32
Route #2: 25 23 39 42 63 20 57
Route #3: 62 43 49 52
Route #4: 1 26 41 54 31 7
Route #5: 17 8 21 27 38 40 34 46 30
Route #6: 33 29 11 28 56 13 16
Route #7: 47 61 50 10 12
Route #8: 18 22 55 51 59 14 4 5 24
Route #9: 19 15 35 48 60 36 9 37
Cost 861
Time 0.167599
